\ Model intero
\ LP format - for model browsing. Use MPS format to capture full model detail.
Maximize
  x_7_0 + x_7_1 + x_7_2 + x_7_3 + x_7_4 + x_7_5 + x_7_6 + x_7_7 + x_7_8
   + x_7_9 + x_7_10 + x_7_11 + x_7_12 + x_7_13
Subject To
 ore_minime_totali_materia_0: x_0_0 + x_0_1 + x_0_2 + x_0_3 + x_0_4 + x_0_5
   + x_0_6 + x_0_7 + x_0_8 + x_0_9 + x_0_10 + x_0_11 + x_0_12 + x_0_13
   >= 6
 ore_minime_totali_materia_1: x_1_0 + x_1_1 + x_1_2 + x_1_3 + x_1_4 + x_1_5
   + x_1_6 + x_1_7 + x_1_8 + x_1_9 + x_1_10 + x_1_11 + x_1_12 + x_1_13
   >= 10
 ore_minime_totali_materia_2: x_2_0 + x_2_1 + x_2_2 + x_2_3 + x_2_4 + x_2_5
   + x_2_6 + x_2_7 + x_2_8 + x_2_9 + x_2_10 + x_2_11 + x_2_12 + x_2_13
   >= 2
 ore_minime_totali_materia_3: x_3_0 + x_3_1 + x_3_2 + x_3_3 + x_3_4 + x_3_5
   + x_3_6 + x_3_7 + x_3_8 + x_3_9 + x_3_10 + x_3_11 + x_3_12 + x_3_13
   >= 2
 ore_minime_totali_materia_4: x_4_0 + x_4_1 + x_4_2 + x_4_3 + x_4_4 + x_4_5
   + x_4_6 + x_4_7 + x_4_8 + x_4_9 + x_4_10 + x_4_11 + x_4_12 + x_4_13
   >= 10
 ore_minime_totali_materia_5: x_5_0 + x_5_1 + x_5_2 + x_5_3 + x_5_4 + x_5_5
   + x_5_6 + x_5_7 + x_5_8 + x_5_9 + x_5_10 + x_5_11 + x_5_12 + x_5_13
   >= 2
 ore_minime_totali_materia_6: x_6_0 + x_6_1 + x_6_2 + x_6_3 + x_6_4 + x_6_5
   + x_6_6 + x_6_7 + x_6_8 + x_6_9 + x_6_10 + x_6_11 + x_6_12 + x_6_13
   >= 3
 ore_minime_totali_materia_7: x_7_0 + x_7_1 + x_7_2 + x_7_3 + x_7_4 + x_7_5
   + x_7_6 + x_7_7 + x_7_8 + x_7_9 + x_7_10 + x_7_11 + x_7_12 + x_7_13
   >= 8
 ore_minime_totali_materia_8: x_8_0 + x_8_1 + x_8_2 + x_8_3 + x_8_4 + x_8_5
   + x_8_6 + x_8_7 + x_8_8 + x_8_9 + x_8_10 + x_8_11 + x_8_12 + x_8_13
   >= 3
 ore_minime_totali_materia_9: x_9_0 + x_9_1 + x_9_2 + x_9_3 + x_9_4 + x_9_5
   + x_9_6 + x_9_7 + x_9_8 + x_9_9 + x_9_10 + x_9_11 + x_9_12 + x_9_13
   >= 2
 ore_minime_totali_materia_10: x_10_0 + x_10_1 + x_10_2 + x_10_3 + x_10_4
   + x_10_5 + x_10_6 + x_10_7 + x_10_8 + x_10_9 + x_10_10 + x_10_11
   + x_10_12 + x_10_13 >= 6
 ore_minime_studio_materia_0_nel_giorno_0_se_studiata: x_0_0 - 3 y_0_0
   >= 0
 ore_minime_studio_materia_0_nel_giorno_1_se_studiata: x_0_1 - 3 y_0_1
   >= 0
 ore_minime_studio_materia_0_nel_giorno_2_se_studiata: x_0_2 - 3 y_0_2
   >= 0
 ore_minime_studio_materia_0_nel_giorno_3_se_studiata: x_0_3 - 3 y_0_3
   >= 0
 ore_minime_studio_materia_0_nel_giorno_4_se_studiata: x_0_4 - 3 y_0_4
   >= 0
 ore_minime_studio_materia_0_nel_giorno_5_se_studiata: x_0_5 - 3 y_0_5
   >= 0
 ore_minime_studio_materia_0_nel_giorno_6_se_studiata: x_0_6 - 3 y_0_6
   >= 0
 ore_minime_studio_materia_0_nel_giorno_7_se_studiata: x_0_7 - 3 y_0_7
   >= 0
 ore_minime_studio_materia_0_nel_giorno_8_se_studiata: x_0_8 - 3 y_0_8
   >= 0
 ore_minime_studio_materia_0_nel_giorno_9_se_studiata: x_0_9 - 3 y_0_9
   >= 0
 ore_minime_studio_materia_0_nel_giorno_10_se_studiata: x_0_10 - 3 y_0_10
   >= 0
 ore_minime_studio_materia_0_nel_giorno_11_se_studiata: x_0_11 - 3 y_0_11
   >= 0
 ore_minime_studio_materia_0_nel_giorno_12_se_studiata: x_0_12 - 3 y_0_12
   >= 0
 ore_minime_studio_materia_0_nel_giorno_13_se_studiata: x_0_13 - 3 y_0_13
   >= 0
 ore_minime_studio_materia_1_nel_giorno_0_se_studiata: x_1_0 >= 0
 ore_minime_studio_materia_1_nel_giorno_1_se_studiata: x_1_1 >= 0
 ore_minime_studio_materia_1_nel_giorno_2_se_studiata: x_1_2 >= 0
 ore_minime_studio_materia_1_nel_giorno_3_se_studiata: x_1_3 >= 0
 ore_minime_studio_materia_1_nel_giorno_4_se_studiata: x_1_4 >= 0
 ore_minime_studio_materia_1_nel_giorno_5_se_studiata: x_1_5 >= 0
 ore_minime_studio_materia_1_nel_giorno_6_se_studiata: x_1_6 >= 0
 ore_minime_studio_materia_1_nel_giorno_7_se_studiata: x_1_7 >= 0
 ore_minime_studio_materia_1_nel_giorno_8_se_studiata: x_1_8 >= 0
 ore_minime_studio_materia_1_nel_giorno_9_se_studiata: x_1_9 >= 0
 ore_minime_studio_materia_1_nel_giorno_10_se_studiata: x_1_10 >= 0
 ore_minime_studio_materia_1_nel_giorno_11_se_studiata: x_1_11 >= 0
 ore_minime_studio_materia_1_nel_giorno_12_se_studiata: x_1_12 >= 0
 ore_minime_studio_materia_1_nel_giorno_13_se_studiata: x_1_13 >= 0
 ore_minime_studio_materia_2_nel_giorno_0_se_studiata: x_2_0 - 3 y_2_0
   >= 0
 ore_minime_studio_materia_2_nel_giorno_1_se_studiata: x_2_1 - 3 y_2_1
   >= 0
 ore_minime_studio_materia_2_nel_giorno_2_se_studiata: x_2_2 - 3 y_2_2
   >= 0
 ore_minime_studio_materia_2_nel_giorno_3_se_studiata: x_2_3 - 3 y_2_3
   >= 0
 ore_minime_studio_materia_2_nel_giorno_4_se_studiata: x_2_4 - 3 y_2_4
   >= 0
 ore_minime_studio_materia_2_nel_giorno_5_se_studiata: x_2_5 - 3 y_2_5
   >= 0
 ore_minime_studio_materia_2_nel_giorno_6_se_studiata: x_2_6 - 3 y_2_6
   >= 0
 ore_minime_studio_materia_2_nel_giorno_7_se_studiata: x_2_7 - 3 y_2_7
   >= 0
 ore_minime_studio_materia_2_nel_giorno_8_se_studiata: x_2_8 - 3 y_2_8
   >= 0
 ore_minime_studio_materia_2_nel_giorno_9_se_studiata: x_2_9 - 3 y_2_9
   >= 0
 ore_minime_studio_materia_2_nel_giorno_10_se_studiata: x_2_10 - 3 y_2_10
   >= 0
 ore_minime_studio_materia_2_nel_giorno_11_se_studiata: x_2_11 - 3 y_2_11
   >= 0
 ore_minime_studio_materia_2_nel_giorno_12_se_studiata: x_2_12 - 3 y_2_12
   >= 0
 ore_minime_studio_materia_2_nel_giorno_13_se_studiata: x_2_13 - 3 y_2_13
   >= 0
 ore_minime_studio_materia_3_nel_giorno_0_se_studiata: x_3_0 - y_3_0 >= 0
 ore_minime_studio_materia_3_nel_giorno_1_se_studiata: x_3_1 - y_3_1 >= 0
 ore_minime_studio_materia_3_nel_giorno_2_se_studiata: x_3_2 - y_3_2 >= 0
 ore_minime_studio_materia_3_nel_giorno_3_se_studiata: x_3_3 - y_3_3 >= 0
 ore_minime_studio_materia_3_nel_giorno_4_se_studiata: x_3_4 - y_3_4 >= 0
 ore_minime_studio_materia_3_nel_giorno_5_se_studiata: x_3_5 - y_3_5 >= 0
 ore_minime_studio_materia_3_nel_giorno_6_se_studiata: x_3_6 - y_3_6 >= 0
 ore_minime_studio_materia_3_nel_giorno_7_se_studiata: x_3_7 - y_3_7 >= 0
 ore_minime_studio_materia_3_nel_giorno_8_se_studiata: x_3_8 - y_3_8 >= 0
 ore_minime_studio_materia_3_nel_giorno_9_se_studiata: x_3_9 - y_3_9 >= 0
 ore_minime_studio_materia_3_nel_giorno_10_se_studiata: x_3_10 - y_3_10
   >= 0
 ore_minime_studio_materia_3_nel_giorno_11_se_studiata: x_3_11 - y_3_11
   >= 0
 ore_minime_studio_materia_3_nel_giorno_12_se_studiata: x_3_12 - y_3_12
   >= 0
 ore_minime_studio_materia_3_nel_giorno_13_se_studiata: x_3_13 - y_3_13
   >= 0
 ore_minime_studio_materia_4_nel_giorno_0_se_studiata: x_4_0 - y_4_0 >= 0
 ore_minime_studio_materia_4_nel_giorno_1_se_studiata: x_4_1 - y_4_1 >= 0
 ore_minime_studio_materia_4_nel_giorno_2_se_studiata: x_4_2 - y_4_2 >= 0
 ore_minime_studio_materia_4_nel_giorno_3_se_studiata: x_4_3 - y_4_3 >= 0
 ore_minime_studio_materia_4_nel_giorno_4_se_studiata: x_4_4 - y_4_4 >= 0
 ore_minime_studio_materia_4_nel_giorno_5_se_studiata: x_4_5 - y_4_5 >= 0
 ore_minime_studio_materia_4_nel_giorno_6_se_studiata: x_4_6 - y_4_6 >= 0
 ore_minime_studio_materia_4_nel_giorno_7_se_studiata: x_4_7 - y_4_7 >= 0
 ore_minime_studio_materia_4_nel_giorno_8_se_studiata: x_4_8 - y_4_8 >= 0
 ore_minime_studio_materia_4_nel_giorno_9_se_studiata: x_4_9 - y_4_9 >= 0
 ore_minime_studio_materia_4_nel_giorno_10_se_studiata: x_4_10 - y_4_10
   >= 0
 ore_minime_studio_materia_4_nel_giorno_11_se_studiata: x_4_11 - y_4_11
   >= 0
 ore_minime_studio_materia_4_nel_giorno_12_se_studiata: x_4_12 - y_4_12
   >= 0
 ore_minime_studio_materia_4_nel_giorno_13_se_studiata: x_4_13 - y_4_13
   >= 0
 ore_minime_studio_materia_5_nel_giorno_0_se_studiata: x_5_0 >= 0
 ore_minime_studio_materia_5_nel_giorno_1_se_studiata: x_5_1 >= 0
 ore_minime_studio_materia_5_nel_giorno_2_se_studiata: x_5_2 >= 0
 ore_minime_studio_materia_5_nel_giorno_3_se_studiata: x_5_3 >= 0
 ore_minime_studio_materia_5_nel_giorno_4_se_studiata: x_5_4 >= 0
 ore_minime_studio_materia_5_nel_giorno_5_se_studiata: x_5_5 >= 0
 ore_minime_studio_materia_5_nel_giorno_6_se_studiata: x_5_6 >= 0
 ore_minime_studio_materia_5_nel_giorno_7_se_studiata: x_5_7 >= 0
 ore_minime_studio_materia_5_nel_giorno_8_se_studiata: x_5_8 >= 0
 ore_minime_studio_materia_5_nel_giorno_9_se_studiata: x_5_9 >= 0
 ore_minime_studio_materia_5_nel_giorno_10_se_studiata: x_5_10 >= 0
 ore_minime_studio_materia_5_nel_giorno_11_se_studiata: x_5_11 >= 0
 ore_minime_studio_materia_5_nel_giorno_12_se_studiata: x_5_12 >= 0
 ore_minime_studio_materia_5_nel_giorno_13_se_studiata: x_5_13 >= 0
 ore_minime_studio_materia_6_nel_giorno_0_se_studiata: x_6_0 - 2 y_6_0
   >= 0
 ore_minime_studio_materia_6_nel_giorno_1_se_studiata: x_6_1 - 2 y_6_1
   >= 0
 ore_minime_studio_materia_6_nel_giorno_2_se_studiata: x_6_2 - 2 y_6_2
   >= 0
 ore_minime_studio_materia_6_nel_giorno_3_se_studiata: x_6_3 - 2 y_6_3
   >= 0
 ore_minime_studio_materia_6_nel_giorno_4_se_studiata: x_6_4 - 2 y_6_4
   >= 0
 ore_minime_studio_materia_6_nel_giorno_5_se_studiata: x_6_5 - 2 y_6_5
   >= 0
 ore_minime_studio_materia_6_nel_giorno_6_se_studiata: x_6_6 - 2 y_6_6
   >= 0
 ore_minime_studio_materia_6_nel_giorno_7_se_studiata: x_6_7 - 2 y_6_7
   >= 0
 ore_minime_studio_materia_6_nel_giorno_8_se_studiata: x_6_8 - 2 y_6_8
   >= 0
 ore_minime_studio_materia_6_nel_giorno_9_se_studiata: x_6_9 - 2 y_6_9
   >= 0
 ore_minime_studio_materia_6_nel_giorno_10_se_studiata: x_6_10 - 2 y_6_10
   >= 0
 ore_minime_studio_materia_6_nel_giorno_11_se_studiata: x_6_11 - 2 y_6_11
   >= 0
 ore_minime_studio_materia_6_nel_giorno_12_se_studiata: x_6_12 - 2 y_6_12
   >= 0
 ore_minime_studio_materia_6_nel_giorno_13_se_studiata: x_6_13 - 2 y_6_13
   >= 0
 ore_minime_studio_materia_7_nel_giorno_0_se_studiata: x_7_0 - y_7_0 >= 0
 ore_minime_studio_materia_7_nel_giorno_1_se_studiata: x_7_1 - y_7_1 >= 0
 ore_minime_studio_materia_7_nel_giorno_2_se_studiata: x_7_2 - y_7_2 >= 0
 ore_minime_studio_materia_7_nel_giorno_3_se_studiata: x_7_3 - y_7_3 >= 0
 ore_minime_studio_materia_7_nel_giorno_4_se_studiata: x_7_4 - y_7_4 >= 0
 ore_minime_studio_materia_7_nel_giorno_5_se_studiata: x_7_5 - y_7_5 >= 0
 ore_minime_studio_materia_7_nel_giorno_6_se_studiata: x_7_6 - y_7_6 >= 0
 ore_minime_studio_materia_7_nel_giorno_7_se_studiata: x_7_7 - y_7_7 >= 0
 ore_minime_studio_materia_7_nel_giorno_8_se_studiata: x_7_8 - y_7_8 >= 0
 ore_minime_studio_materia_7_nel_giorno_9_se_studiata: x_7_9 - y_7_9 >= 0
 ore_minime_studio_materia_7_nel_giorno_10_se_studiata: x_7_10 - y_7_10
   >= 0
 ore_minime_studio_materia_7_nel_giorno_11_se_studiata: x_7_11 - y_7_11
   >= 0
 ore_minime_studio_materia_7_nel_giorno_12_se_studiata: x_7_12 - y_7_12
   >= 0
 ore_minime_studio_materia_7_nel_giorno_13_se_studiata: x_7_13 - y_7_13
   >= 0
 ore_minime_studio_materia_8_nel_giorno_0_se_studiata: x_8_0 - y_8_0 >= 0
 ore_minime_studio_materia_8_nel_giorno_1_se_studiata: x_8_1 - y_8_1 >= 0
 ore_minime_studio_materia_8_nel_giorno_2_se_studiata: x_8_2 - y_8_2 >= 0
 ore_minime_studio_materia_8_nel_giorno_3_se_studiata: x_8_3 - y_8_3 >= 0
 ore_minime_studio_materia_8_nel_giorno_4_se_studiata: x_8_4 - y_8_4 >= 0
 ore_minime_studio_materia_8_nel_giorno_5_se_studiata: x_8_5 - y_8_5 >= 0
 ore_minime_studio_materia_8_nel_giorno_6_se_studiata: x_8_6 - y_8_6 >= 0
 ore_minime_studio_materia_8_nel_giorno_7_se_studiata: x_8_7 - y_8_7 >= 0
 ore_minime_studio_materia_8_nel_giorno_8_se_studiata: x_8_8 - y_8_8 >= 0
 ore_minime_studio_materia_8_nel_giorno_9_se_studiata: x_8_9 - y_8_9 >= 0
 ore_minime_studio_materia_8_nel_giorno_10_se_studiata: x_8_10 - y_8_10
   >= 0
 ore_minime_studio_materia_8_nel_giorno_11_se_studiata: x_8_11 - y_8_11
   >= 0
 ore_minime_studio_materia_8_nel_giorno_12_se_studiata: x_8_12 - y_8_12
   >= 0
 ore_minime_studio_materia_8_nel_giorno_13_se_studiata: x_8_13 - y_8_13
   >= 0
 ore_minime_studio_materia_9_nel_giorno_0_se_studiata: x_9_0 >= 0
 ore_minime_studio_materia_9_nel_giorno_1_se_studiata: x_9_1 >= 0
 ore_minime_studio_materia_9_nel_giorno_2_se_studiata: x_9_2 >= 0
 ore_minime_studio_materia_9_nel_giorno_3_se_studiata: x_9_3 >= 0
 ore_minime_studio_materia_9_nel_giorno_4_se_studiata: x_9_4 >= 0
 ore_minime_studio_materia_9_nel_giorno_5_se_studiata: x_9_5 >= 0
 ore_minime_studio_materia_9_nel_giorno_6_se_studiata: x_9_6 >= 0
 ore_minime_studio_materia_9_nel_giorno_7_se_studiata: x_9_7 >= 0
 ore_minime_studio_materia_9_nel_giorno_8_se_studiata: x_9_8 >= 0
 ore_minime_studio_materia_9_nel_giorno_9_se_studiata: x_9_9 >= 0
 ore_minime_studio_materia_9_nel_giorno_10_se_studiata: x_9_10 >= 0
 ore_minime_studio_materia_9_nel_giorno_11_se_studiata: x_9_11 >= 0
 ore_minime_studio_materia_9_nel_giorno_12_se_studiata: x_9_12 >= 0
 ore_minime_studio_materia_9_nel_giorno_13_se_studiata: x_9_13 >= 0
 ore_minime_studio_materia_10_nel_giorno_0_se_studiata: x_10_0 - y_10_0
   >= 0
 ore_minime_studio_materia_10_nel_giorno_1_se_studiata: x_10_1 - y_10_1
   >= 0
 ore_minime_studio_materia_10_nel_giorno_2_se_studiata: x_10_2 - y_10_2
   >= 0
 ore_minime_studio_materia_10_nel_giorno_3_se_studiata: x_10_3 - y_10_3
   >= 0
 ore_minime_studio_materia_10_nel_giorno_4_se_studiata: x_10_4 - y_10_4
   >= 0
 ore_minime_studio_materia_10_nel_giorno_5_se_studiata: x_10_5 - y_10_5
   >= 0
 ore_minime_studio_materia_10_nel_giorno_6_se_studiata: x_10_6 - y_10_6
   >= 0
 ore_minime_studio_materia_10_nel_giorno_7_se_studiata: x_10_7 - y_10_7
   >= 0
 ore_minime_studio_materia_10_nel_giorno_8_se_studiata: x_10_8 - y_10_8
   >= 0
 ore_minime_studio_materia_10_nel_giorno_9_se_studiata: x_10_9 - y_10_9
   >= 0
 ore_minime_studio_materia_10_nel_giorno_10_se_studiata: x_10_10 - y_10_10
   >= 0
 ore_minime_studio_materia_10_nel_giorno_11_se_studiata: x_10_11 - y_10_11
   >= 0
 ore_minime_studio_materia_10_nel_giorno_12_se_studiata: x_10_12 - y_10_12
   >= 0
 ore_minime_studio_materia_10_nel_giorno_13_se_studiata: x_10_13 - y_10_13
   >= 0
 BIG_M_se_materia_0_studiata_nel_giorno_0: x_0_0 - 24 y_0_0 <= 0
 BIG_M_se_materia_0_studiata_nel_giorno_1: x_0_1 - 24 y_0_1 <= 0
 BIG_M_se_materia_0_studiata_nel_giorno_2: x_0_2 - 24 y_0_2 <= 0
 BIG_M_se_materia_0_studiata_nel_giorno_3: x_0_3 - 24 y_0_3 <= 0
 BIG_M_se_materia_0_studiata_nel_giorno_4: x_0_4 - 24 y_0_4 <= 0
 BIG_M_se_materia_0_studiata_nel_giorno_5: x_0_5 - 24 y_0_5 <= 0
 BIG_M_se_materia_0_studiata_nel_giorno_6: x_0_6 - 24 y_0_6 <= 0
 BIG_M_se_materia_0_studiata_nel_giorno_7: x_0_7 - 24 y_0_7 <= 0
 BIG_M_se_materia_0_studiata_nel_giorno_8: x_0_8 - 24 y_0_8 <= 0
 BIG_M_se_materia_0_studiata_nel_giorno_9: x_0_9 - 24 y_0_9 <= 0
 BIG_M_se_materia_0_studiata_nel_giorno_10: x_0_10 - 24 y_0_10 <= 0
 BIG_M_se_materia_0_studiata_nel_giorno_11: x_0_11 - 24 y_0_11 <= 0
 BIG_M_se_materia_0_studiata_nel_giorno_12: x_0_12 - 24 y_0_12 <= 0
 BIG_M_se_materia_0_studiata_nel_giorno_13: x_0_13 - 24 y_0_13 <= 0
 BIG_M_se_materia_1_studiata_nel_giorno_0: x_1_0 - 24 y_1_0 <= 0
 BIG_M_se_materia_1_studiata_nel_giorno_1: x_1_1 - 24 y_1_1 <= 0
 BIG_M_se_materia_1_studiata_nel_giorno_2: x_1_2 - 24 y_1_2 <= 0
 BIG_M_se_materia_1_studiata_nel_giorno_3: x_1_3 - 24 y_1_3 <= 0
 BIG_M_se_materia_1_studiata_nel_giorno_4: x_1_4 - 24 y_1_4 <= 0
 BIG_M_se_materia_1_studiata_nel_giorno_5: x_1_5 - 24 y_1_5 <= 0
 BIG_M_se_materia_1_studiata_nel_giorno_6: x_1_6 - 24 y_1_6 <= 0
 BIG_M_se_materia_1_studiata_nel_giorno_7: x_1_7 - 24 y_1_7 <= 0
 BIG_M_se_materia_1_studiata_nel_giorno_8: x_1_8 - 24 y_1_8 <= 0
 BIG_M_se_materia_1_studiata_nel_giorno_9: x_1_9 - 24 y_1_9 <= 0
 BIG_M_se_materia_1_studiata_nel_giorno_10: x_1_10 - 24 y_1_10 <= 0
 BIG_M_se_materia_1_studiata_nel_giorno_11: x_1_11 - 24 y_1_11 <= 0
 BIG_M_se_materia_1_studiata_nel_giorno_12: x_1_12 - 24 y_1_12 <= 0
 BIG_M_se_materia_1_studiata_nel_giorno_13: x_1_13 - 24 y_1_13 <= 0
 BIG_M_se_materia_2_studiata_nel_giorno_0: x_2_0 - 24 y_2_0 <= 0
 BIG_M_se_materia_2_studiata_nel_giorno_1: x_2_1 - 24 y_2_1 <= 0
 BIG_M_se_materia_2_studiata_nel_giorno_2: x_2_2 - 24 y_2_2 <= 0
 BIG_M_se_materia_2_studiata_nel_giorno_3: x_2_3 - 24 y_2_3 <= 0
 BIG_M_se_materia_2_studiata_nel_giorno_4: x_2_4 - 24 y_2_4 <= 0
 BIG_M_se_materia_2_studiata_nel_giorno_5: x_2_5 - 24 y_2_5 <= 0
 BIG_M_se_materia_2_studiata_nel_giorno_6: x_2_6 - 24 y_2_6 <= 0
 BIG_M_se_materia_2_studiata_nel_giorno_7: x_2_7 - 24 y_2_7 <= 0
 BIG_M_se_materia_2_studiata_nel_giorno_8: x_2_8 - 24 y_2_8 <= 0
 BIG_M_se_materia_2_studiata_nel_giorno_9: x_2_9 - 24 y_2_9 <= 0
 BIG_M_se_materia_2_studiata_nel_giorno_10: x_2_10 - 24 y_2_10 <= 0
 BIG_M_se_materia_2_studiata_nel_giorno_11: x_2_11 - 24 y_2_11 <= 0
 BIG_M_se_materia_2_studiata_nel_giorno_12: x_2_12 - 24 y_2_12 <= 0
 BIG_M_se_materia_2_studiata_nel_giorno_13: x_2_13 - 24 y_2_13 <= 0
 BIG_M_se_materia_3_studiata_nel_giorno_0: x_3_0 - 24 y_3_0 <= 0
 BIG_M_se_materia_3_studiata_nel_giorno_1: x_3_1 - 24 y_3_1 <= 0
 BIG_M_se_materia_3_studiata_nel_giorno_2: x_3_2 - 24 y_3_2 <= 0
 BIG_M_se_materia_3_studiata_nel_giorno_3: x_3_3 - 24 y_3_3 <= 0
 BIG_M_se_materia_3_studiata_nel_giorno_4: x_3_4 - 24 y_3_4 <= 0
 BIG_M_se_materia_3_studiata_nel_giorno_5: x_3_5 - 24 y_3_5 <= 0
 BIG_M_se_materia_3_studiata_nel_giorno_6: x_3_6 - 24 y_3_6 <= 0
 BIG_M_se_materia_3_studiata_nel_giorno_7: x_3_7 - 24 y_3_7 <= 0
 BIG_M_se_materia_3_studiata_nel_giorno_8: x_3_8 - 24 y_3_8 <= 0
 BIG_M_se_materia_3_studiata_nel_giorno_9: x_3_9 - 24 y_3_9 <= 0
 BIG_M_se_materia_3_studiata_nel_giorno_10: x_3_10 - 24 y_3_10 <= 0
 BIG_M_se_materia_3_studiata_nel_giorno_11: x_3_11 - 24 y_3_11 <= 0
 BIG_M_se_materia_3_studiata_nel_giorno_12: x_3_12 - 24 y_3_12 <= 0
 BIG_M_se_materia_3_studiata_nel_giorno_13: x_3_13 - 24 y_3_13 <= 0
 BIG_M_se_materia_4_studiata_nel_giorno_0: x_4_0 - 24 y_4_0 <= 0
 BIG_M_se_materia_4_studiata_nel_giorno_1: x_4_1 - 24 y_4_1 <= 0
 BIG_M_se_materia_4_studiata_nel_giorno_2: x_4_2 - 24 y_4_2 <= 0
 BIG_M_se_materia_4_studiata_nel_giorno_3: x_4_3 - 24 y_4_3 <= 0
 BIG_M_se_materia_4_studiata_nel_giorno_4: x_4_4 - 24 y_4_4 <= 0
 BIG_M_se_materia_4_studiata_nel_giorno_5: x_4_5 - 24 y_4_5 <= 0
 BIG_M_se_materia_4_studiata_nel_giorno_6: x_4_6 - 24 y_4_6 <= 0
 BIG_M_se_materia_4_studiata_nel_giorno_7: x_4_7 - 24 y_4_7 <= 0
 BIG_M_se_materia_4_studiata_nel_giorno_8: x_4_8 - 24 y_4_8 <= 0
 BIG_M_se_materia_4_studiata_nel_giorno_9: x_4_9 - 24 y_4_9 <= 0
 BIG_M_se_materia_4_studiata_nel_giorno_10: x_4_10 - 24 y_4_10 <= 0
 BIG_M_se_materia_4_studiata_nel_giorno_11: x_4_11 - 24 y_4_11 <= 0
 BIG_M_se_materia_4_studiata_nel_giorno_12: x_4_12 - 24 y_4_12 <= 0
 BIG_M_se_materia_4_studiata_nel_giorno_13: x_4_13 - 24 y_4_13 <= 0
 BIG_M_se_materia_5_studiata_nel_giorno_0: x_5_0 - 24 y_5_0 <= 0
 BIG_M_se_materia_5_studiata_nel_giorno_1: x_5_1 - 24 y_5_1 <= 0
 BIG_M_se_materia_5_studiata_nel_giorno_2: x_5_2 - 24 y_5_2 <= 0
 BIG_M_se_materia_5_studiata_nel_giorno_3: x_5_3 - 24 y_5_3 <= 0
 BIG_M_se_materia_5_studiata_nel_giorno_4: x_5_4 - 24 y_5_4 <= 0
 BIG_M_se_materia_5_studiata_nel_giorno_5: x_5_5 - 24 y_5_5 <= 0
 BIG_M_se_materia_5_studiata_nel_giorno_6: x_5_6 - 24 y_5_6 <= 0
 BIG_M_se_materia_5_studiata_nel_giorno_7: x_5_7 - 24 y_5_7 <= 0
 BIG_M_se_materia_5_studiata_nel_giorno_8: x_5_8 - 24 y_5_8 <= 0
 BIG_M_se_materia_5_studiata_nel_giorno_9: x_5_9 - 24 y_5_9 <= 0
 BIG_M_se_materia_5_studiata_nel_giorno_10: x_5_10 - 24 y_5_10 <= 0
 BIG_M_se_materia_5_studiata_nel_giorno_11: x_5_11 - 24 y_5_11 <= 0
 BIG_M_se_materia_5_studiata_nel_giorno_12: x_5_12 - 24 y_5_12 <= 0
 BIG_M_se_materia_5_studiata_nel_giorno_13: x_5_13 - 24 y_5_13 <= 0
 BIG_M_se_materia_6_studiata_nel_giorno_0: x_6_0 - 24 y_6_0 <= 0
 BIG_M_se_materia_6_studiata_nel_giorno_1: x_6_1 - 24 y_6_1 <= 0
 BIG_M_se_materia_6_studiata_nel_giorno_2: x_6_2 - 24 y_6_2 <= 0
 BIG_M_se_materia_6_studiata_nel_giorno_3: x_6_3 - 24 y_6_3 <= 0
 BIG_M_se_materia_6_studiata_nel_giorno_4: x_6_4 - 24 y_6_4 <= 0
 BIG_M_se_materia_6_studiata_nel_giorno_5: x_6_5 - 24 y_6_5 <= 0
 BIG_M_se_materia_6_studiata_nel_giorno_6: x_6_6 - 24 y_6_6 <= 0
 BIG_M_se_materia_6_studiata_nel_giorno_7: x_6_7 - 24 y_6_7 <= 0
 BIG_M_se_materia_6_studiata_nel_giorno_8: x_6_8 - 24 y_6_8 <= 0
 BIG_M_se_materia_6_studiata_nel_giorno_9: x_6_9 - 24 y_6_9 <= 0
 BIG_M_se_materia_6_studiata_nel_giorno_10: x_6_10 - 24 y_6_10 <= 0
 BIG_M_se_materia_6_studiata_nel_giorno_11: x_6_11 - 24 y_6_11 <= 0
 BIG_M_se_materia_6_studiata_nel_giorno_12: x_6_12 - 24 y_6_12 <= 0
 BIG_M_se_materia_6_studiata_nel_giorno_13: x_6_13 - 24 y_6_13 <= 0
 BIG_M_se_materia_7_studiata_nel_giorno_0: x_7_0 - 24 y_7_0 <= 0
 BIG_M_se_materia_7_studiata_nel_giorno_1: x_7_1 - 24 y_7_1 <= 0
 BIG_M_se_materia_7_studiata_nel_giorno_2: x_7_2 - 24 y_7_2 <= 0
 BIG_M_se_materia_7_studiata_nel_giorno_3: x_7_3 - 24 y_7_3 <= 0
 BIG_M_se_materia_7_studiata_nel_giorno_4: x_7_4 - 24 y_7_4 <= 0
 BIG_M_se_materia_7_studiata_nel_giorno_5: x_7_5 - 24 y_7_5 <= 0
 BIG_M_se_materia_7_studiata_nel_giorno_6: x_7_6 - 24 y_7_6 <= 0
 BIG_M_se_materia_7_studiata_nel_giorno_7: x_7_7 - 24 y_7_7 <= 0
 BIG_M_se_materia_7_studiata_nel_giorno_8: x_7_8 - 24 y_7_8 <= 0
 BIG_M_se_materia_7_studiata_nel_giorno_9: x_7_9 - 24 y_7_9 <= 0
 BIG_M_se_materia_7_studiata_nel_giorno_10: x_7_10 - 24 y_7_10 <= 0
 BIG_M_se_materia_7_studiata_nel_giorno_11: x_7_11 - 24 y_7_11 <= 0
 BIG_M_se_materia_7_studiata_nel_giorno_12: x_7_12 - 24 y_7_12 <= 0
 BIG_M_se_materia_7_studiata_nel_giorno_13: x_7_13 - 24 y_7_13 <= 0
 BIG_M_se_materia_8_studiata_nel_giorno_0: x_8_0 - 24 y_8_0 <= 0
 BIG_M_se_materia_8_studiata_nel_giorno_1: x_8_1 - 24 y_8_1 <= 0
 BIG_M_se_materia_8_studiata_nel_giorno_2: x_8_2 - 24 y_8_2 <= 0
 BIG_M_se_materia_8_studiata_nel_giorno_3: x_8_3 - 24 y_8_3 <= 0
 BIG_M_se_materia_8_studiata_nel_giorno_4: x_8_4 - 24 y_8_4 <= 0
 BIG_M_se_materia_8_studiata_nel_giorno_5: x_8_5 - 24 y_8_5 <= 0
 BIG_M_se_materia_8_studiata_nel_giorno_6: x_8_6 - 24 y_8_6 <= 0
 BIG_M_se_materia_8_studiata_nel_giorno_7: x_8_7 - 24 y_8_7 <= 0
 BIG_M_se_materia_8_studiata_nel_giorno_8: x_8_8 - 24 y_8_8 <= 0
 BIG_M_se_materia_8_studiata_nel_giorno_9: x_8_9 - 24 y_8_9 <= 0
 BIG_M_se_materia_8_studiata_nel_giorno_10: x_8_10 - 24 y_8_10 <= 0
 BIG_M_se_materia_8_studiata_nel_giorno_11: x_8_11 - 24 y_8_11 <= 0
 BIG_M_se_materia_8_studiata_nel_giorno_12: x_8_12 - 24 y_8_12 <= 0
 BIG_M_se_materia_8_studiata_nel_giorno_13: x_8_13 - 24 y_8_13 <= 0
 BIG_M_se_materia_9_studiata_nel_giorno_0: x_9_0 - 24 y_9_0 <= 0
 BIG_M_se_materia_9_studiata_nel_giorno_1: x_9_1 - 24 y_9_1 <= 0
 BIG_M_se_materia_9_studiata_nel_giorno_2: x_9_2 - 24 y_9_2 <= 0
 BIG_M_se_materia_9_studiata_nel_giorno_3: x_9_3 - 24 y_9_3 <= 0
 BIG_M_se_materia_9_studiata_nel_giorno_4: x_9_4 - 24 y_9_4 <= 0
 BIG_M_se_materia_9_studiata_nel_giorno_5: x_9_5 - 24 y_9_5 <= 0
 BIG_M_se_materia_9_studiata_nel_giorno_6: x_9_6 - 24 y_9_6 <= 0
 BIG_M_se_materia_9_studiata_nel_giorno_7: x_9_7 - 24 y_9_7 <= 0
 BIG_M_se_materia_9_studiata_nel_giorno_8: x_9_8 - 24 y_9_8 <= 0
 BIG_M_se_materia_9_studiata_nel_giorno_9: x_9_9 - 24 y_9_9 <= 0
 BIG_M_se_materia_9_studiata_nel_giorno_10: x_9_10 - 24 y_9_10 <= 0
 BIG_M_se_materia_9_studiata_nel_giorno_11: x_9_11 - 24 y_9_11 <= 0
 BIG_M_se_materia_9_studiata_nel_giorno_12: x_9_12 - 24 y_9_12 <= 0
 BIG_M_se_materia_9_studiata_nel_giorno_13: x_9_13 - 24 y_9_13 <= 0
 BIG_M_se_materia_10_studiata_nel_giorno_0: x_10_0 - 24 y_10_0 <= 0
 BIG_M_se_materia_10_studiata_nel_giorno_1: x_10_1 - 24 y_10_1 <= 0
 BIG_M_se_materia_10_studiata_nel_giorno_2: x_10_2 - 24 y_10_2 <= 0
 BIG_M_se_materia_10_studiata_nel_giorno_3: x_10_3 - 24 y_10_3 <= 0
 BIG_M_se_materia_10_studiata_nel_giorno_4: x_10_4 - 24 y_10_4 <= 0
 BIG_M_se_materia_10_studiata_nel_giorno_5: x_10_5 - 24 y_10_5 <= 0
 BIG_M_se_materia_10_studiata_nel_giorno_6: x_10_6 - 24 y_10_6 <= 0
 BIG_M_se_materia_10_studiata_nel_giorno_7: x_10_7 - 24 y_10_7 <= 0
 BIG_M_se_materia_10_studiata_nel_giorno_8: x_10_8 - 24 y_10_8 <= 0
 BIG_M_se_materia_10_studiata_nel_giorno_9: x_10_9 - 24 y_10_9 <= 0
 BIG_M_se_materia_10_studiata_nel_giorno_10: x_10_10 - 24 y_10_10 <= 0
 BIG_M_se_materia_10_studiata_nel_giorno_11: x_10_11 - 24 y_10_11 <= 0
 BIG_M_se_materia_10_studiata_nel_giorno_12: x_10_12 - 24 y_10_12 <= 0
 BIG_M_se_materia_10_studiata_nel_giorno_13: x_10_13 - 24 y_10_13 <= 0
 materie_massime_studiate_nel_giorno_0: y_0_0 + y_1_0 + y_2_0 + y_3_0
   + y_4_0 + y_5_0 + y_6_0 + y_7_0 + y_8_0 + y_9_0 + y_10_0 <= 2
 materie_massime_studiate_nel_giorno_1: y_0_1 + y_1_1 + y_2_1 + y_3_1
   + y_4_1 + y_5_1 + y_6_1 + y_7_1 + y_8_1 + y_9_1 + y_10_1 <= 2
 materie_massime_studiate_nel_giorno_2: y_0_2 + y_1_2 + y_2_2 + y_3_2
   + y_4_2 + y_5_2 + y_6_2 + y_7_2 + y_8_2 + y_9_2 + y_10_2 <= 2
 materie_massime_studiate_nel_giorno_3: y_0_3 + y_1_3 + y_2_3 + y_3_3
   + y_4_3 + y_5_3 + y_6_3 + y_7_3 + y_8_3 + y_9_3 + y_10_3 <= 2
 materie_massime_studiate_nel_giorno_4: y_0_4 + y_1_4 + y_2_4 + y_3_4
   + y_4_4 + y_5_4 + y_6_4 + y_7_4 + y_8_4 + y_9_4 + y_10_4 <= 2
 materie_massime_studiate_nel_giorno_5: y_0_5 + y_1_5 + y_2_5 + y_3_5
   + y_4_5 + y_5_5 + y_6_5 + y_7_5 + y_8_5 + y_9_5 + y_10_5 <= 2
 materie_massime_studiate_nel_giorno_6: y_0_6 + y_1_6 + y_2_6 + y_3_6
   + y_4_6 + y_5_6 + y_6_6 + y_7_6 + y_8_6 + y_9_6 + y_10_6 <= 2
 materie_massime_studiate_nel_giorno_7: y_0_7 + y_1_7 + y_2_7 + y_3_7
   + y_4_7 + y_5_7 + y_6_7 + y_7_7 + y_8_7 + y_9_7 + y_10_7 <= 2
 materie_massime_studiate_nel_giorno_8: y_0_8 + y_1_8 + y_2_8 + y_3_8
   + y_4_8 + y_5_8 + y_6_8 + y_7_8 + y_8_8 + y_9_8 + y_10_8 <= 2
 materie_massime_studiate_nel_giorno_9: y_0_9 + y_1_9 + y_2_9 + y_3_9
   + y_4_9 + y_5_9 + y_6_9 + y_7_9 + y_8_9 + y_9_9 + y_10_9 <= 2
 materie_massime_studiate_nel_giorno_10: y_0_10 + y_1_10 + y_2_10 + y_3_10
   + y_4_10 + y_5_10 + y_6_10 + y_7_10 + y_8_10 + y_9_10 + y_10_10 <= 2
 materie_massime_studiate_nel_giorno_11: y_0_11 + y_1_11 + y_2_11 + y_3_11
   + y_4_11 + y_5_11 + y_6_11 + y_7_11 + y_8_11 + y_9_11 + y_10_11 <= 2
 materie_massime_studiate_nel_giorno_12: y_0_12 + y_1_12 + y_2_12 + y_3_12
   + y_4_12 + y_5_12 + y_6_12 + y_7_12 + y_8_12 + y_9_12 + y_10_12 <= 2
 materie_massime_studiate_nel_giorno_13: y_0_13 + y_1_13 + y_2_13 + y_3_13
   + y_4_13 + y_5_13 + y_6_13 + y_7_13 + y_8_13 + y_9_13 + y_10_13 <= 2
 ore_massime_studiate_nel_giorno_0: x_0_0 + x_1_0 + x_2_0 + x_3_0 + x_4_0
   + x_5_0 + x_6_0 + x_7_0 + x_8_0 + x_9_0 + x_10_0 <= 10
 ore_massime_studiate_nel_giorno_1: x_0_1 + x_1_1 + x_2_1 + x_3_1 + x_4_1
   + x_5_1 + x_6_1 + x_7_1 + x_8_1 + x_9_1 + x_10_1 <= 10
 ore_massime_studiate_nel_giorno_2: x_0_2 + x_1_2 + x_2_2 + x_3_2 + x_4_2
   + x_5_2 + x_6_2 + x_7_2 + x_8_2 + x_9_2 + x_10_2 <= 10
 ore_massime_studiate_nel_giorno_3: x_0_3 + x_1_3 + x_2_3 + x_3_3 + x_4_3
   + x_5_3 + x_6_3 + x_7_3 + x_8_3 + x_9_3 + x_10_3 <= 10
 ore_massime_studiate_nel_giorno_4: x_0_4 + x_1_4 + x_2_4 + x_3_4 + x_4_4
   + x_5_4 + x_6_4 + x_7_4 + x_8_4 + x_9_4 + x_10_4 <= 10
 ore_massime_studiate_nel_giorno_5: x_0_5 + x_1_5 + x_2_5 + x_3_5 + x_4_5
   + x_5_5 + x_6_5 + x_7_5 + x_8_5 + x_9_5 + x_10_5 <= 10
 ore_massime_studiate_nel_giorno_6: x_0_6 + x_1_6 + x_2_6 + x_3_6 + x_4_6
   + x_5_6 + x_6_6 + x_7_6 + x_8_6 + x_9_6 + x_10_6 <= 10
 ore_massime_studiate_nel_giorno_7: x_0_7 + x_1_7 + x_2_7 + x_3_7 + x_4_7
   + x_5_7 + x_6_7 + x_7_7 + x_8_7 + x_9_7 + x_10_7 <= 10
 ore_massime_studiate_nel_giorno_8: x_0_8 + x_1_8 + x_2_8 + x_3_8 + x_4_8
   + x_5_8 + x_6_8 + x_7_8 + x_8_8 + x_9_8 + x_10_8 <= 10
 ore_massime_studiate_nel_giorno_9: x_0_9 + x_1_9 + x_2_9 + x_3_9 + x_4_9
   + x_5_9 + x_6_9 + x_7_9 + x_8_9 + x_9_9 + x_10_9 <= 10
 ore_massime_studiate_nel_giorno_10: x_0_10 + x_1_10 + x_2_10 + x_3_10
   + x_4_10 + x_5_10 + x_6_10 + x_7_10 + x_8_10 + x_9_10 + x_10_10 <= 10
 ore_massime_studiate_nel_giorno_11: x_0_11 + x_1_11 + x_2_11 + x_3_11
   + x_4_11 + x_5_11 + x_6_11 + x_7_11 + x_8_11 + x_9_11 + x_10_11 <= 10
 ore_massime_studiate_nel_giorno_12: x_0_12 + x_1_12 + x_2_12 + x_3_12
   + x_4_12 + x_5_12 + x_6_12 + x_7_12 + x_8_12 + x_9_12 + x_10_12 <= 10
 ore_massime_studiate_nel_giorno_13: x_0_13 + x_1_13 + x_2_13 + x_3_13
   + x_4_13 + x_5_13 + x_6_13 + x_7_13 + x_8_13 + x_9_13 + x_10_13 <= 10
Bounds
Binaries
 y_0_0 y_0_1 y_0_2 y_0_3 y_0_4 y_0_5 y_0_6 y_0_7 y_0_8 y_0_9 y_0_10 y_0_11
 y_0_12 y_0_13 y_1_0 y_1_1 y_1_2 y_1_3 y_1_4 y_1_5 y_1_6 y_1_7 y_1_8 y_1_9
 y_1_10 y_1_11 y_1_12 y_1_13 y_2_0 y_2_1 y_2_2 y_2_3 y_2_4 y_2_5 y_2_6
 y_2_7 y_2_8 y_2_9 y_2_10 y_2_11 y_2_12 y_2_13 y_3_0 y_3_1 y_3_2 y_3_3
 y_3_4 y_3_5 y_3_6 y_3_7 y_3_8 y_3_9 y_3_10 y_3_11 y_3_12 y_3_13 y_4_0
 y_4_1 y_4_2 y_4_3 y_4_4 y_4_5 y_4_6 y_4_7 y_4_8 y_4_9 y_4_10 y_4_11 y_4_12
 y_4_13 y_5_0 y_5_1 y_5_2 y_5_3 y_5_4 y_5_5 y_5_6 y_5_7 y_5_8 y_5_9 y_5_10
 y_5_11 y_5_12 y_5_13 y_6_0 y_6_1 y_6_2 y_6_3 y_6_4 y_6_5 y_6_6 y_6_7 y_6_8
 y_6_9 y_6_10 y_6_11 y_6_12 y_6_13 y_7_0 y_7_1 y_7_2 y_7_3 y_7_4 y_7_5
 y_7_6 y_7_7 y_7_8 y_7_9 y_7_10 y_7_11 y_7_12 y_7_13 y_8_0 y_8_1 y_8_2
 y_8_3 y_8_4 y_8_5 y_8_6 y_8_7 y_8_8 y_8_9 y_8_10 y_8_11 y_8_12 y_8_13
 y_9_0 y_9_1 y_9_2 y_9_3 y_9_4 y_9_5 y_9_6 y_9_7 y_9_8 y_9_9 y_9_10 y_9_11
 y_9_12 y_9_13 y_10_0 y_10_1 y_10_2 y_10_3 y_10_4 y_10_5 y_10_6 y_10_7
 y_10_8 y_10_9 y_10_10 y_10_11 y_10_12 y_10_13
Generals
 x_0_0 x_0_1 x_0_2 x_0_3 x_0_4 x_0_5 x_0_6 x_0_7 x_0_8 x_0_9 x_0_10 x_0_11
 x_0_12 x_0_13 x_1_0 x_1_1 x_1_2 x_1_3 x_1_4 x_1_5 x_1_6 x_1_7 x_1_8 x_1_9
 x_1_10 x_1_11 x_1_12 x_1_13 x_2_0 x_2_1 x_2_2 x_2_3 x_2_4 x_2_5 x_2_6
 x_2_7 x_2_8 x_2_9 x_2_10 x_2_11 x_2_12 x_2_13 x_3_0 x_3_1 x_3_2 x_3_3
 x_3_4 x_3_5 x_3_6 x_3_7 x_3_8 x_3_9 x_3_10 x_3_11 x_3_12 x_3_13 x_4_0
 x_4_1 x_4_2 x_4_3 x_4_4 x_4_5 x_4_6 x_4_7 x_4_8 x_4_9 x_4_10 x_4_11 x_4_12
 x_4_13 x_5_0 x_5_1 x_5_2 x_5_3 x_5_4 x_5_5 x_5_6 x_5_7 x_5_8 x_5_9 x_5_10
 x_5_11 x_5_12 x_5_13 x_6_0 x_6_1 x_6_2 x_6_3 x_6_4 x_6_5 x_6_6 x_6_7 x_6_8
 x_6_9 x_6_10 x_6_11 x_6_12 x_6_13 x_7_0 x_7_1 x_7_2 x_7_3 x_7_4 x_7_5
 x_7_6 x_7_7 x_7_8 x_7_9 x_7_10 x_7_11 x_7_12 x_7_13 x_8_0 x_8_1 x_8_2
 x_8_3 x_8_4 x_8_5 x_8_6 x_8_7 x_8_8 x_8_9 x_8_10 x_8_11 x_8_12 x_8_13
 x_9_0 x_9_1 x_9_2 x_9_3 x_9_4 x_9_5 x_9_6 x_9_7 x_9_8 x_9_9 x_9_10 x_9_11
 x_9_12 x_9_13 x_10_0 x_10_1 x_10_2 x_10_3 x_10_4 x_10_5 x_10_6 x_10_7
 x_10_8 x_10_9 x_10_10 x_10_11 x_10_12 x_10_13
End
